benchmark/results/graph__10-1000-0.10-04_15/graph__10-1000-0.10-04_15_Quinton_Benders_aux.lp
\ This file has been generated by DOcplex
\ ENCODING=ISO-8859-1
\Problem name: Quinton Benders_auxiliary_sub

Minimize
 obj: 0.001716244955 pi_nr_a0 + 0.001200334172 pi_nr_a1
      + 0.004382349436 pi_nr_a2 + 0.000894309742 pi_nr_a3
      + 0.003217319055 pi_nr_a4 + 0.001189550366 pi_nr_a5
      + 0.001109324799 pi_nr_a6 + 0.001127166231 pi_nr_a7
      + 0.002260501595 pi_nr_a8 + 0.001604073611 pi_nr_a9 + pi_p_a3_a2
      + pi_p_a6_a9 + pi_p_a2_a7 + pi_p_a5_a7 + pi_p_a5_a9
      + 3707.125000000000 pi_d_a0_a1_proc_3 + 2524 pi_d_a0_a1_proc_0
      + 1341.812500000000 pi_d_a1_a0_proc_3 + 158.687500000000 pi_d_a1_a0_proc_0
      + 2524.062500000000 pi_d_a0_a2_proc_2
      + 3628.312500000000 pi_d_a0_a2_proc_3
      + 3470.562500000000 pi_d_a0_a2_proc_0 + 316.375000000000 pi_d_a2_a0_proc_2
      + 1420.625000000000 pi_d_a2_a0_proc_3
      + 1262.875000000000 pi_d_a2_a0_proc_0 + 631 pi_d_a0_a3_proc_2
      + 2760.625000000000 pi_d_a0_a3_proc_3
      + 2681.750000000000 pi_d_a0_a3_proc_0 + 158.687500000000 pi_d_a3_a0_proc_2
      + 2288.312500000000 pi_d_a3_a0_proc_3
      + 2209.437500000000 pi_d_a3_a0_proc_0 + 394.375000000000 pi_d_a0_a4_proc_2
      + 2524 pi_d_a0_a4_proc_0 + 237.562500000000 pi_d_a4_a0_proc_2
      + 2367.187500000000 pi_d_a4_a0_proc_0
      + 2602.875000000000 pi_d_a0_a5_proc_2
      + 2760.625000000000 pi_d_a0_a5_proc_3
      + 3628.250000000000 pi_d_a0_a5_proc_0 + 237.562500000000 pi_d_a5_a0_proc_2
      + 395.312500000000 pi_d_a5_a0_proc_3 + 1262.937500000000 pi_d_a5_a0_proc_0
      + 2602.875000000000 pi_d_a0_a6_proc_2
      + 3628.250000000000 pi_d_a0_a6_proc_3 + 2524 pi_d_a0_a6_proc_0
      + 237.562500000000 pi_d_a6_a0_proc_2 + 1262.937500000000 pi_d_a6_a0_proc_3
      + 158.687500000000 pi_d_a6_a0_proc_0 + 4575.687500000000 pi_d_a0_a7_proc_0
      + 157.750000000000 pi_d_a7_a0_proc_0 + 2524 pi_d_a0_a8_proc_2
      + 2524 pi_d_a0_a8_proc_0 + 158.687500000000 pi_d_a8_a0_proc_2
      + 158.687500000000 pi_d_a8_a0_proc_0 + 2524.937500000000 pi_d_a0_a9_proc_3
      + 3471.437500000000 pi_d_a0_a9_proc_0 + 315.500000000000 pi_d_a9_a0_proc_3
      + 1262 pi_d_a9_a0_proc_0 + 3707.187500000000 pi_d_a1_a2_proc_3
      + 2524.062500000000 pi_d_a1_a2_proc_0
      + 2524.062500000000 pi_d_a1_a2_proc_1
      + 1341.750000000000 pi_d_a2_a1_proc_3 + 158.625000000000 pi_d_a2_a1_proc_0
      + 158.625000000000 pi_d_a2_a1_proc_1 + 3707.125000000000 pi_d_a1_a3_proc_3
      + 2602.875000000000 pi_d_a1_a3_proc_0
      + 3470.500000000000 pi_d_a1_a3_proc_1
      + 1341.812500000000 pi_d_a3_a1_proc_3 + 237.562500000000 pi_d_a3_a1_proc_0
      + 1105.187500000000 pi_d_a3_a1_proc_1 + 2524 pi_d_a1_a4_proc_0
      + 3470.500000000000 pi_d_a1_a4_proc_1 + 316.437500000000 pi_d_a4_a1_proc_0
      + 1262.937500000000 pi_d_a4_a1_proc_1
      + 2681.812500000000 pi_d_a1_a5_proc_3
      + 2524.062500000000 pi_d_a1_a5_proc_0
      + 3312.812500000000 pi_d_a1_a5_proc_1 + 474.125000000000 pi_d_a5_a1_proc_3
      + 316.375000000000 pi_d_a5_a1_proc_0 + 1105.125000000000 pi_d_a5_a1_proc_1
      + 2524 pi_d_a1_a6_proc_3 + 394.375000000000 pi_d_a1_a6_proc_0
      + 2367.187500000000 pi_d_a6_a1_proc_3 + 237.562500000000 pi_d_a6_a1_proc_0
      + 2524.937500000000 pi_d_a1_a7_proc_0
      + 2524.937500000000 pi_d_a1_a7_proc_1 + 157.750000000000 pi_d_a7_a1_proc_0
      + 157.750000000000 pi_d_a7_a1_proc_1 + 473.250000000000 pi_d_a1_a8_proc_0
      + 158.687500000000 pi_d_a8_a1_proc_0 + 2603.812500000000 pi_d_a1_a9_proc_3
      + 2524.937500000000 pi_d_a1_a9_proc_0
      + 3629.187500000000 pi_d_a1_a9_proc_1 + 236.625000000000 pi_d_a9_a1_proc_3
      + 157.750000000000 pi_d_a9_a1_proc_0 + 1262 pi_d_a9_a1_proc_1
      + 2524 pi_d_a2_a3_proc_2 + 3549.375000000000 pi_d_a2_a3_proc_3
      + 3470.500000000000 pi_d_a2_a3_proc_0
      + 2287.375000000000 pi_d_a2_a3_proc_1 + 474.187500000000 pi_d_a3_a2_proc_2
      + 1499.562500000000 pi_d_a3_a2_proc_3
      + 1420.687500000000 pi_d_a3_a2_proc_0 + 237.562500000000 pi_d_a3_a2_proc_1
      + 2602.875000000000 pi_d_a2_a4_proc_2
      + 3628.250000000000 pi_d_a2_a4_proc_0 + 2524 pi_d_a2_a4_proc_1
      + 237.562500000000 pi_d_a4_a2_proc_2 + 1262.937500000000 pi_d_a4_a2_proc_0
      + 158.687500000000 pi_d_a4_a2_proc_1 + 3549.375000000000 pi_d_a2_a5_proc_2
      + 2602.875000000000 pi_d_a2_a5_proc_3
      + 3470.500000000000 pi_d_a2_a5_proc_0
      + 2208.500000000000 pi_d_a2_a5_proc_1
      + 1499.562500000000 pi_d_a5_a2_proc_2 + 553.062500000000 pi_d_a5_a2_proc_3
      + 1420.687500000000 pi_d_a5_a2_proc_0 + 158.687500000000 pi_d_a5_a2_proc_1
      + 3707.125000000000 pi_d_a2_a6_proc_2
      + 3628.250000000000 pi_d_a2_a6_proc_3 + 2524 pi_d_a2_a6_proc_0
      + 1341.812500000000 pi_d_a6_a2_proc_2
      + 1262.937500000000 pi_d_a6_a2_proc_3 + 158.687500000000 pi_d_a6_a2_proc_0
      + 2367.187500000000 pi_d_a2_a7_proc_0 + 316.437500000000 pi_d_a2_a7_proc_1
      + 2366.250000000000 pi_d_a7_a2_proc_0 + 315.500000000000 pi_d_a7_a2_proc_1
      + 3628.250000000000 pi_d_a2_a8_proc_2 + 2524 pi_d_a2_a8_proc_0
      + 1262.937500000000 pi_d_a8_a2_proc_2 + 158.687500000000 pi_d_a8_a2_proc_0
      + 2524.937500000000 pi_d_a2_a9_proc_3
      + 3471.437500000000 pi_d_a2_a9_proc_0
      + 2524.937500000000 pi_d_a2_a9_proc_1 + 315.500000000000 pi_d_a9_a2_proc_3
      + 1262 pi_d_a9_a2_proc_0 + 315.500000000000 pi_d_a9_a2_proc_1
      + 631.937500000000 pi_d_a3_a4_proc_2 + 2761.562500000000 pi_d_a3_a4_proc_0
      + 2524.937500000000 pi_d_a3_a4_proc_1 + 157.750000000000 pi_d_a4_a3_proc_2
      + 2287.375000000000 pi_d_a4_a3_proc_0
      + 2050.750000000000 pi_d_a4_a3_proc_1
      + 2524.937500000000 pi_d_a3_a5_proc_2
      + 2603.812500000000 pi_d_a3_a5_proc_3
      + 3550.312500000000 pi_d_a3_a5_proc_0
      + 3155.937500000000 pi_d_a3_a5_proc_1 + 473.250000000000 pi_d_a5_a3_proc_2
      + 552.125000000000 pi_d_a5_a3_proc_3 + 1498.625000000000 pi_d_a5_a3_proc_0
      + 1104.250000000000 pi_d_a5_a3_proc_1
      + 2682.625000000000 pi_d_a3_a6_proc_2
      + 3629.125000000000 pi_d_a3_a6_proc_3
      + 2603.750000000000 pi_d_a3_a6_proc_0 + 315.562500000000 pi_d_a6_a3_proc_2
      + 1262.062500000000 pi_d_a6_a3_proc_3 + 236.687500000000 pi_d_a6_a3_proc_0
      + 2232.437500000000 pi_d_a3_a7_proc_0
      + 1049.312500000000 pi_d_a3_a7_proc_1
      + 2658.750000000000 pi_d_a7_a3_proc_0
      + 1475.625000000000 pi_d_a7_a3_proc_1
      + 2524.937500000000 pi_d_a3_a8_proc_2
      + 2524.937500000000 pi_d_a3_a8_proc_0 + 315.500000000000 pi_d_a8_a3_proc_2
      + 315.500000000000 pi_d_a8_a3_proc_0 + 2603.812500000000 pi_d_a3_a9_proc_3
      + 3629.187500000000 pi_d_a3_a9_proc_0
      + 3550.312500000000 pi_d_a3_a9_proc_1 + 236.625000000000 pi_d_a9_a3_proc_3
      + 1262 pi_d_a9_a3_proc_0 + 1183.125000000000 pi_d_a9_a3_proc_1
      + 2524.937500000000 pi_d_a4_a5_proc_2
      + 3629.187500000000 pi_d_a4_a5_proc_0
      + 3313.687500000000 pi_d_a4_a5_proc_1 + 315.500000000000 pi_d_a5_a4_proc_2
      + 1419.750000000000 pi_d_a5_a4_proc_0
      + 1104.250000000000 pi_d_a5_a4_proc_1
      + 2681.750000000000 pi_d_a4_a6_proc_2
      + 2681.750000000000 pi_d_a4_a6_proc_0 + 158.687500000000 pi_d_a6_a4_proc_2
      + 158.687500000000 pi_d_a6_a4_proc_0 + 3629.187500000000 pi_d_a4_a7_proc_0
      + 2524.937500000000 pi_d_a4_a7_proc_1 + 1262 pi_d_a7_a4_proc_0
      + 157.750000000000 pi_d_a7_a4_proc_1 + 2524 pi_d_a4_a8_proc_2
      + 2602.875000000000 pi_d_a4_a8_proc_0 + 158.687500000000 pi_d_a8_a4_proc_2
      + 237.562500000000 pi_d_a8_a4_proc_0 + 4733.437500000000 pi_d_a4_a9_proc_0
      + 4733.437500000000 pi_d_a4_a9_proc_1 + 157.750000000000 pi_d_a9_a4_proc_0
      + 157.750000000000 pi_d_a9_a4_proc_1 + 3707.125000000000 pi_d_a5_a6_proc_2
      + 2681.750000000000 pi_d_a5_a6_proc_3
      + 2602.875000000000 pi_d_a5_a6_proc_0
      + 1341.812500000000 pi_d_a6_a5_proc_2 + 316.437500000000 pi_d_a6_a5_proc_3
      + 237.562500000000 pi_d_a6_a5_proc_0 + 3471.437500000000 pi_d_a5_a7_proc_0
      + 2209.437500000000 pi_d_a5_a7_proc_1
      + 1419.750000000000 pi_d_a7_a5_proc_0 + 157.750000000000 pi_d_a7_a5_proc_1
      + 3628.250000000000 pi_d_a5_a8_proc_2
      + 2602.875000000000 pi_d_a5_a8_proc_0
      + 1262.937500000000 pi_d_a8_a5_proc_2 + 237.562500000000 pi_d_a8_a5_proc_0
      + 710.812500000000 pi_d_a5_a9_proc_3 + 2682.687500000000 pi_d_a5_a9_proc_0
      + 2524.937500000000 pi_d_a5_a9_proc_1 + 236.625000000000 pi_d_a9_a5_proc_3
      + 2208.500000000000 pi_d_a9_a5_proc_0
      + 2050.750000000000 pi_d_a9_a5_proc_1
      + 2524.937500000000 pi_d_a6_a7_proc_0 + 157.750000000000 pi_d_a7_a6_proc_0
      + 2524.937500000000 pi_d_a6_a8_proc_2 + 395.312500000000 pi_d_a6_a8_proc_0
      + 2366.250000000000 pi_d_a8_a6_proc_2 + 236.625000000000 pi_d_a8_a6_proc_0
      + 2524.937500000000 pi_d_a6_a9_proc_3
      + 2524.937500000000 pi_d_a6_a9_proc_0 + 157.750000000000 pi_d_a9_a6_proc_3
      + 157.750000000000 pi_d_a9_a6_proc_0 + 2524 pi_d_a7_a8_proc_0
      + 158.687500000000 pi_d_a8_a7_proc_0 + 3470.562500000000 pi_d_a7_a9_proc_0
      + 2524.062500000000 pi_d_a7_a9_proc_1
      + 1262.875000000000 pi_d_a9_a7_proc_0 + 316.375000000000 pi_d_a9_a7_proc_1
      + 2524.937500000000 pi_d_a8_a9_proc_0 + 157.750000000000 pi_d_a9_a8_proc_0
      + 0.062500000000 pi_y2_a0_proc_0 + 0.875000000000 pi_y2_a0_proc_2
      + 0.875000000000 pi_y2_a1_proc_0 + 0.062500000000 pi_y2_a1_proc_1
      + 0.062500000000 pi_y2_a2_proc_0 + 0.875000000000 pi_y2_a2_proc_1
      + 0.125000000000 pi_y2_a3_proc_1 + 0.812500000000 pi_y2_a3_proc_2
      + 0.062500000000 pi_y2_a4_proc_1 + 0.875000000000 pi_y2_a4_proc_2
      + 0.187500000000 pi_y2_a5_proc_1 + 0.750000000000 pi_y2_a5_proc_3
      + 0.875000000000 pi_y2_a6_proc_0 + 0.062500000000 pi_y2_a6_proc_3
      + 0.062500000000 pi_y2_a7_proc_0 + 0.875000000000 pi_y2_a7_proc_1
      + 0.875000000000 pi_y2_a8_proc_0 + 0.062500000000 pi_y2_a8_proc_2
      + 0.062500000000 pi_y2_a9_proc_0 + 0.875000000000 pi_y2_a9_proc_3
Subject To
 c1: 0.001897533207 pi_nr_a0 + 0.001293661061 pi_nr_a1 + 0.004926108374 pi_nr_a2
     + 0.000929368030 pi_nr_a3 + 0.003571428571 pi_nr_a4
     + 0.001355013550 pi_nr_a5 + 0.001193317422 pi_nr_a6
     + 0.001212121212 pi_nr_a7 + 0.002481389578 pi_nr_a8
     + 0.001751313485 pi_nr_a9 + pi_p_a3_a2 + pi_p_a6_a9 + pi_p_a2_a7
     + pi_p_a5_a7 + pi_p_a5_a9 + 3786 pi_d_a0_a1_proc_3 + 2524 pi_d_a0_a1_proc_0
     + 1263 pi_d_a1_a0_proc_3 + pi_d_a1_a0_proc_0 + 2524 pi_d_a0_a2_proc_2
     + 3786 pi_d_a0_a2_proc_3 + 3786 pi_d_a0_a2_proc_0 + pi_d_a2_a0_proc_2
     + 1263 pi_d_a2_a0_proc_3 + 1263 pi_d_a2_a0_proc_0 + 2524 pi_d_a0_a3_proc_3
     + 2524 pi_d_a0_a3_proc_0 + pi_d_a3_a0_proc_2 + 2525 pi_d_a3_a0_proc_3
     + 2525 pi_d_a3_a0_proc_0 + 2524 pi_d_a0_a4_proc_0 + pi_d_a4_a0_proc_2
     + 2525 pi_d_a4_a0_proc_0 + 2524 pi_d_a0_a5_proc_2 + 2524 pi_d_a0_a5_proc_3
     + 3786 pi_d_a0_a5_proc_0 + pi_d_a5_a0_proc_2 + pi_d_a5_a0_proc_3
     + 1263 pi_d_a5_a0_proc_0 + 2524 pi_d_a0_a6_proc_2 + 3786 pi_d_a0_a6_proc_3
     + 2524 pi_d_a0_a6_proc_0 + pi_d_a6_a0_proc_2 + 1263 pi_d_a6_a0_proc_3
     + pi_d_a6_a0_proc_0 + 5049 pi_d_a0_a7_proc_0 + 2524 pi_d_a0_a8_proc_2
     + 2524 pi_d_a0_a8_proc_0 + pi_d_a8_a0_proc_2 + pi_d_a8_a0_proc_0
     + 2525 pi_d_a0_a9_proc_3 + 3787 pi_d_a0_a9_proc_0 + 1262 pi_d_a9_a0_proc_0
     + 3786 pi_d_a1_a2_proc_3 + 2524 pi_d_a1_a2_proc_0 + 2524 pi_d_a1_a2_proc_1
     + 1263 pi_d_a2_a1_proc_3 + pi_d_a2_a1_proc_0 + pi_d_a2_a1_proc_1
     + 3786 pi_d_a1_a3_proc_3 + 2524 pi_d_a1_a3_proc_0 + 3786 pi_d_a1_a3_proc_1
     + 1263 pi_d_a3_a1_proc_3 + pi_d_a3_a1_proc_0 + 1263 pi_d_a3_a1_proc_1
     + 2524 pi_d_a1_a4_proc_0 + 3786 pi_d_a1_a4_proc_1 + pi_d_a4_a1_proc_0
     + 1263 pi_d_a4_a1_proc_1 + 2524 pi_d_a1_a5_proc_3 + 2524 pi_d_a1_a5_proc_0
     + 3786 pi_d_a1_a5_proc_1 + pi_d_a5_a1_proc_3 + pi_d_a5_a1_proc_0
     + 1263 pi_d_a5_a1_proc_1 + 2524 pi_d_a1_a6_proc_3 + 2525 pi_d_a6_a1_proc_3
     + pi_d_a6_a1_proc_0 + 2525 pi_d_a1_a7_proc_0 + 2525 pi_d_a1_a7_proc_1
     + pi_d_a8_a1_proc_0 + 2525 pi_d_a1_a9_proc_3 + 2525 pi_d_a1_a9_proc_0
     + 3787 pi_d_a1_a9_proc_1 + 1262 pi_d_a9_a1_proc_1 + 2524 pi_d_a2_a3_proc_2
     + 3786 pi_d_a2_a3_proc_3 + 3786 pi_d_a2_a3_proc_0 + 2524 pi_d_a2_a3_proc_1
     + pi_d_a3_a2_proc_2 + 1263 pi_d_a3_a2_proc_3 + 1263 pi_d_a3_a2_proc_0
     + pi_d_a3_a2_proc_1 + 2524 pi_d_a2_a4_proc_2 + 3786 pi_d_a2_a4_proc_0
     + 2524 pi_d_a2_a4_proc_1 + pi_d_a4_a2_proc_2 + 1263 pi_d_a4_a2_proc_0
     + pi_d_a4_a2_proc_1 + 3786 pi_d_a2_a5_proc_2 + 2524 pi_d_a2_a5_proc_3
     + 3786 pi_d_a2_a5_proc_0 + 2524 pi_d_a2_a5_proc_1 + 1263 pi_d_a5_a2_proc_2
     + pi_d_a5_a2_proc_3 + 1263 pi_d_a5_a2_proc_0 + pi_d_a5_a2_proc_1
     + 3786 pi_d_a2_a6_proc_2 + 3786 pi_d_a2_a6_proc_3 + 2524 pi_d_a2_a6_proc_0
     + 1263 pi_d_a6_a2_proc_2 + 1263 pi_d_a6_a2_proc_3 + pi_d_a6_a2_proc_0
     + 2525 pi_d_a2_a7_proc_0 + pi_d_a2_a7_proc_1 + 2524 pi_d_a7_a2_proc_0
     + 3786 pi_d_a2_a8_proc_2 + 2524 pi_d_a2_a8_proc_0 + 1263 pi_d_a8_a2_proc_2
     + pi_d_a8_a2_proc_0 + 2525 pi_d_a2_a9_proc_3 + 3787 pi_d_a2_a9_proc_0
     + 2525 pi_d_a2_a9_proc_1 + 1262 pi_d_a9_a2_proc_0 + pi_d_a3_a4_proc_2
     + 2525 pi_d_a3_a4_proc_0 + 2525 pi_d_a3_a4_proc_1 + 2524 pi_d_a4_a3_proc_0
     + 2524 pi_d_a4_a3_proc_1 + 2525 pi_d_a3_a5_proc_2 + 2525 pi_d_a3_a5_proc_3
     + 3787 pi_d_a3_a5_proc_0 + 3787 pi_d_a3_a5_proc_1 + 1262 pi_d_a5_a3_proc_0
     + 1262 pi_d_a5_a3_proc_1 + 2525 pi_d_a3_a6_proc_2 + 3787 pi_d_a3_a6_proc_3
     + 2525 pi_d_a3_a6_proc_0 + 1262 pi_d_a6_a3_proc_3 + 2135 pi_d_a3_a7_proc_0
     + 873 pi_d_a3_a7_proc_1 + 2914 pi_d_a7_a3_proc_0 + 1652 pi_d_a7_a3_proc_1
     + 2525 pi_d_a3_a8_proc_2 + 2525 pi_d_a3_a8_proc_0 + 2525 pi_d_a3_a9_proc_3
     + 3787 pi_d_a3_a9_proc_0 + 3787 pi_d_a3_a9_proc_1 + 1262 pi_d_a9_a3_proc_0
     + 1262 pi_d_a9_a3_proc_1 + 2525 pi_d_a4_a5_proc_2 + 3787 pi_d_a4_a5_proc_0
     + 3787 pi_d_a4_a5_proc_1 + 1262 pi_d_a5_a4_proc_0 + 1262 pi_d_a5_a4_proc_1
     + 2524 pi_d_a4_a6_proc_2 + 2524 pi_d_a4_a6_proc_0 + pi_d_a6_a4_proc_2
     + pi_d_a6_a4_proc_0 + 3787 pi_d_a4_a7_proc_0 + 2525 pi_d_a4_a7_proc_1
     + 1262 pi_d_a7_a4_proc_0 + 2524 pi_d_a4_a8_proc_2 + 2524 pi_d_a4_a8_proc_0
     + pi_d_a8_a4_proc_2 + pi_d_a8_a4_proc_0 + 5049 pi_d_a4_a9_proc_0
     + 5049 pi_d_a4_a9_proc_1 + 3786 pi_d_a5_a6_proc_2 + 2524 pi_d_a5_a6_proc_3
     + 2524 pi_d_a5_a6_proc_0 + 1263 pi_d_a6_a5_proc_2 + pi_d_a6_a5_proc_3
     + pi_d_a6_a5_proc_0 + 3787 pi_d_a5_a7_proc_0 + 2525 pi_d_a5_a7_proc_1
     + 1262 pi_d_a7_a5_proc_0 + 3786 pi_d_a5_a8_proc_2 + 2524 pi_d_a5_a8_proc_0
     + 1263 pi_d_a8_a5_proc_2 + pi_d_a8_a5_proc_0 + pi_d_a5_a9_proc_3
     + 2525 pi_d_a5_a9_proc_0 + 2525 pi_d_a5_a9_proc_1 + 2524 pi_d_a9_a5_proc_0
     + 2524 pi_d_a9_a5_proc_1 + 2525 pi_d_a6_a7_proc_0 + 2525 pi_d_a6_a8_proc_2
     + pi_d_a6_a8_proc_0 + 2524 pi_d_a8_a6_proc_2 + 2525 pi_d_a6_a9_proc_3
     + 2525 pi_d_a6_a9_proc_0 + 2524 pi_d_a7_a8_proc_0 + pi_d_a8_a7_proc_0
     + 3786 pi_d_a7_a9_proc_0 + 2524 pi_d_a7_a9_proc_1 + 1263 pi_d_a9_a7_proc_0
     + pi_d_a9_a7_proc_1 + 2525 pi_d_a8_a9_proc_0 + pi_y2_a0_proc_2
     + pi_y2_a1_proc_0 + pi_y2_a2_proc_1 + pi_y2_a3_proc_2 + pi_y2_a4_proc_2
     + pi_y2_a5_proc_3 + pi_y2_a6_proc_0 + pi_y2_a7_proc_1 + pi_y2_a8_proc_0
     + pi_y2_a9_proc_3 = 0.000226244344
 c2: pi_nr_a0 + pi_nr_a1 + pi_nr_a2 + pi_nr_a3 + pi_nr_a4 + pi_nr_a5 + pi_nr_a6
     + pi_nr_a7 + pi_nr_a8 + pi_nr_a9 - pi_y1_a0 - pi_y1_a1 - pi_y1_a2
     - pi_y1_a3 - pi_y1_a4 - pi_y1_a5 - pi_y1_a6 - pi_y1_a7 - pi_y1_a8
     - pi_y1_a9 >= 1
 c3: pi_p_a0_a1 - pi_p_a2_a0 + pi_d_a0_a1_proc_3 + pi_d_a0_a1_proc_0
     - pi_d_a1_a0_proc_3 - pi_d_a1_a0_proc_0 + pi_d_a0_a2_proc_2
     + pi_d_a0_a2_proc_3 + pi_d_a0_a2_proc_0 - pi_d_a2_a0_proc_2
     - pi_d_a2_a0_proc_3 - pi_d_a2_a0_proc_0 + pi_d_a0_a3_proc_2
     + pi_d_a0_a3_proc_3 + pi_d_a0_a3_proc_0 - pi_d_a3_a0_proc_2
     - pi_d_a3_a0_proc_3 - pi_d_a3_a0_proc_0 + pi_d_a0_a4_proc_2
     + pi_d_a0_a4_proc_0 - pi_d_a4_a0_proc_2 - pi_d_a4_a0_proc_0
     + pi_d_a0_a5_proc_2 + pi_d_a0_a5_proc_3 + pi_d_a0_a5_proc_0
     - pi_d_a5_a0_proc_2 - pi_d_a5_a0_proc_3 - pi_d_a5_a0_proc_0
     + pi_d_a0_a6_proc_2 + pi_d_a0_a6_proc_3 + pi_d_a0_a6_proc_0
     - pi_d_a6_a0_proc_2 - pi_d_a6_a0_proc_3 - pi_d_a6_a0_proc_0
     + pi_d_a0_a7_proc_0 - pi_d_a7_a0_proc_0 + pi_d_a0_a8_proc_2
     + pi_d_a0_a8_proc_0 - pi_d_a8_a0_proc_2 - pi_d_a8_a0_proc_0
     + pi_d_a0_a9_proc_3 + pi_d_a0_a9_proc_0 - pi_d_a9_a0_proc_3
     - pi_d_a9_a0_proc_0 >= 0
 c4: 1118 pi_p_a0_a1 + 1118 pi_d_a0_a1_proc_0 + 1118 pi_d_a0_a2_proc_0
     + 1118 pi_d_a0_a3_proc_0 + 1118 pi_d_a0_a4_proc_0 + 1118 pi_d_a0_a5_proc_0
     + 1118 pi_d_a0_a6_proc_0 + 1118 pi_d_a0_a7_proc_0 + 1118 pi_d_a0_a8_proc_0
     + 1118 pi_d_a0_a9_proc_0 + pi_y1_a0 + pi_y2_a0_proc_0 >= 0
 c5: 527 pi_p_a0_a1 + 527 pi_d_a0_a2_proc_2 + 527 pi_d_a0_a3_proc_2
     + 527 pi_d_a0_a4_proc_2 + 527 pi_d_a0_a5_proc_2 + 527 pi_d_a0_a6_proc_2
     + 527 pi_d_a0_a8_proc_2 + pi_y1_a0 + pi_y2_a0_proc_2 >= 0
 c6: 812 pi_p_a0_a1 + 812 pi_d_a0_a1_proc_3 + 812 pi_d_a0_a2_proc_3
     + 812 pi_d_a0_a3_proc_3 + 812 pi_d_a0_a5_proc_3 + 812 pi_d_a0_a6_proc_3
     + 812 pi_d_a0_a9_proc_3 + pi_y1_a0 + pi_y2_a0_proc_3 >= 0
 c7: - pi_p_a0_a1 + pi_p_a1_a4 - pi_d_a0_a1_proc_3 - pi_d_a0_a1_proc_0
     + pi_d_a1_a0_proc_3 + pi_d_a1_a0_proc_0 + pi_d_a1_a2_proc_3
     + pi_d_a1_a2_proc_0 + pi_d_a1_a2_proc_1 - pi_d_a2_a1_proc_3
     - pi_d_a2_a1_proc_0 - pi_d_a2_a1_proc_1 + pi_d_a1_a3_proc_3
     + pi_d_a1_a3_proc_0 + pi_d_a1_a3_proc_1 - pi_d_a3_a1_proc_3
     - pi_d_a3_a1_proc_0 - pi_d_a3_a1_proc_1 + pi_d_a1_a4_proc_0
     + pi_d_a1_a4_proc_1 - pi_d_a4_a1_proc_0 - pi_d_a4_a1_proc_1
     + pi_d_a1_a5_proc_3 + pi_d_a1_a5_proc_0 + pi_d_a1_a5_proc_1
     - pi_d_a5_a1_proc_3 - pi_d_a5_a1_proc_0 - pi_d_a5_a1_proc_1
     + pi_d_a1_a6_proc_3 + pi_d_a1_a6_proc_0 - pi_d_a6_a1_proc_3
     - pi_d_a6_a1_proc_0 + pi_d_a1_a7_proc_0 + pi_d_a1_a7_proc_1
     - pi_d_a7_a1_proc_0 - pi_d_a7_a1_proc_1 + pi_d_a1_a8_proc_0
     - pi_d_a8_a1_proc_0 + pi_d_a1_a9_proc_3 + pi_d_a1_a9_proc_0
     + pi_d_a1_a9_proc_1 - pi_d_a9_a1_proc_3 - pi_d_a9_a1_proc_0
     - pi_d_a9_a1_proc_1 >= 0
 c8: 773 pi_p_a1_a4 + 773 pi_d_a1_a0_proc_0 + 773 pi_d_a1_a2_proc_0
     + 773 pi_d_a1_a3_proc_0 + 773 pi_d_a1_a4_proc_0 + 773 pi_d_a1_a5_proc_0
     + 773 pi_d_a1_a6_proc_0 + 773 pi_d_a1_a7_proc_0 + 773 pi_d_a1_a8_proc_0
     + 773 pi_d_a1_a9_proc_0 + pi_y1_a1 + pi_y2_a1_proc_0 >= 0
 c9: 914 pi_p_a1_a4 + 914 pi_d_a1_a2_proc_1 + 914 pi_d_a1_a3_proc_1
     + 914 pi_d_a1_a4_proc_1 + 914 pi_d_a1_a5_proc_1 + 914 pi_d_a1_a7_proc_1
     + 914 pi_d_a1_a9_proc_1 + pi_y1_a1 + pi_y2_a1_proc_1 >= 0
 c10: 1072 pi_p_a1_a4 + 1072 pi_d_a1_a0_proc_3 + 1072 pi_d_a1_a2_proc_3
      + 1072 pi_d_a1_a3_proc_3 + 1072 pi_d_a1_a5_proc_3 + 1072 pi_d_a1_a6_proc_3
      + 1072 pi_d_a1_a9_proc_3 + pi_y1_a1 + pi_y2_a1_proc_3 >= 0
 c11: pi_p_a2_a0 - pi_p_a3_a2 + pi_p_a2_a5 - pi_p_a7_a2 + pi_p_a2_a7
      - pi_d_a0_a2_proc_2 - pi_d_a0_a2_proc_3 - pi_d_a0_a2_proc_0
      + pi_d_a2_a0_proc_2 + pi_d_a2_a0_proc_3 + pi_d_a2_a0_proc_0
      - pi_d_a1_a2_proc_3 - pi_d_a1_a2_proc_0 - pi_d_a1_a2_proc_1
      + pi_d_a2_a1_proc_3 + pi_d_a2_a1_proc_0 + pi_d_a2_a1_proc_1
      + pi_d_a2_a3_proc_2 + pi_d_a2_a3_proc_3 + pi_d_a2_a3_proc_0
      + pi_d_a2_a3_proc_1 - pi_d_a3_a2_proc_2 - pi_d_a3_a2_proc_3
      - pi_d_a3_a2_proc_0 - pi_d_a3_a2_proc_1 + pi_d_a2_a4_proc_2
      + pi_d_a2_a4_proc_0 + pi_d_a2_a4_proc_1 - pi_d_a4_a2_proc_2
      - pi_d_a4_a2_proc_0 - pi_d_a4_a2_proc_1 + pi_d_a2_a5_proc_2
      + pi_d_a2_a5_proc_3 + pi_d_a2_a5_proc_0 + pi_d_a2_a5_proc_1
      - pi_d_a5_a2_proc_2 - pi_d_a5_a2_proc_3 - pi_d_a5_a2_proc_0
      - pi_d_a5_a2_proc_1 + pi_d_a2_a6_proc_2 + pi_d_a2_a6_proc_3
      + pi_d_a2_a6_proc_0 - pi_d_a6_a2_proc_2 - pi_d_a6_a2_proc_3
      - pi_d_a6_a2_proc_0 + pi_d_a2_a7_proc_0 + pi_d_a2_a7_proc_1
      - pi_d_a7_a2_proc_0 - pi_d_a7_a2_proc_1 + pi_d_a2_a8_proc_2
      + pi_d_a2_a8_proc_0 - pi_d_a8_a2_proc_2 - pi_d_a8_a2_proc_0
      + pi_d_a2_a9_proc_3 + pi_d_a2_a9_proc_0 + pi_d_a2_a9_proc_1
      - pi_d_a9_a2_proc_3 - pi_d_a9_a2_proc_0 - pi_d_a9_a2_proc_1 >= 0
 c12: 868 pi_p_a2_a0 + 868 pi_p_a2_a5 + 868 pi_p_a2_a7 + 868 pi_d_a2_a0_proc_0
      + 868 pi_d_a2_a1_proc_0 + 868 pi_d_a2_a3_proc_0 + 868 pi_d_a2_a4_proc_0
      + 868 pi_d_a2_a5_proc_0 + 868 pi_d_a2_a6_proc_0 + 868 pi_d_a2_a7_proc_0
      + 868 pi_d_a2_a8_proc_0 + 868 pi_d_a2_a9_proc_0 + pi_y1_a2
      + pi_y2_a2_proc_0 >= 0
 c13: 203 pi_p_a2_a0 + 203 pi_p_a2_a5 + 203 pi_p_a2_a7 + 203 pi_d_a2_a1_proc_1
      + 203 pi_d_a2_a3_proc_1 + 203 pi_d_a2_a4_proc_1 + 203 pi_d_a2_a5_proc_1
      + 203 pi_d_a2_a7_proc_1 + 203 pi_d_a2_a9_proc_1 + pi_y1_a2
      + pi_y2_a2_proc_1 >= 0
 c14: 1027 pi_p_a2_a0 + 1027 pi_p_a2_a5 + 1027 pi_p_a2_a7
      + 1027 pi_d_a2_a0_proc_2 + 1027 pi_d_a2_a3_proc_2 + 1027 pi_d_a2_a4_proc_2
      + 1027 pi_d_a2_a5_proc_2 + 1027 pi_d_a2_a6_proc_2 + 1027 pi_d_a2_a8_proc_2
      + pi_y1_a2 + pi_y2_a2_proc_2 >= 0
 c15: 1011 pi_p_a2_a0 + 1011 pi_p_a2_a5 + 1011 pi_p_a2_a7
      + 1011 pi_d_a2_a0_proc_3 + 1011 pi_d_a2_a1_proc_3 + 1011 pi_d_a2_a3_proc_3
      + 1011 pi_d_a2_a5_proc_3 + 1011 pi_d_a2_a6_proc_3 + 1011 pi_d_a2_a9_proc_3
      + pi_y1_a2 + pi_y2_a2_proc_3 >= 0
 c16: pi_p_a3_a2 - pi_p_a6_a3 - pi_p_a4_a3 - pi_d_a0_a3_proc_2
      - pi_d_a0_a3_proc_3 - pi_d_a0_a3_proc_0 + pi_d_a3_a0_proc_2
      + pi_d_a3_a0_proc_3 + pi_d_a3_a0_proc_0 - pi_d_a1_a3_proc_3
      - pi_d_a1_a3_proc_0 - pi_d_a1_a3_proc_1 + pi_d_a3_a1_proc_3
      + pi_d_a3_a1_proc_0 + pi_d_a3_a1_proc_1 - pi_d_a2_a3_proc_2
      - pi_d_a2_a3_proc_3 - pi_d_a2_a3_proc_0 - pi_d_a2_a3_proc_1
      + pi_d_a3_a2_proc_2 + pi_d_a3_a2_proc_3 + pi_d_a3_a2_proc_0
      + pi_d_a3_a2_proc_1 + pi_d_a3_a4_proc_2 + pi_d_a3_a4_proc_0
      + pi_d_a3_a4_proc_1 - pi_d_a4_a3_proc_2 - pi_d_a4_a3_proc_0
      - pi_d_a4_a3_proc_1 + pi_d_a3_a5_proc_2 + pi_d_a3_a5_proc_3
      + pi_d_a3_a5_proc_0 + pi_d_a3_a5_proc_1 - pi_d_a5_a3_proc_2
      - pi_d_a5_a3_proc_3 - pi_d_a5_a3_proc_0 - pi_d_a5_a3_proc_1
      + pi_d_a3_a6_proc_2 + pi_d_a3_a6_proc_3 + pi_d_a3_a6_proc_0
      - pi_d_a6_a3_proc_2 - pi_d_a6_a3_proc_3 - pi_d_a6_a3_proc_0
      + pi_d_a3_a7_proc_0 + pi_d_a3_a7_proc_1 - pi_d_a7_a3_proc_0
      - pi_d_a7_a3_proc_1 + pi_d_a3_a8_proc_2 + pi_d_a3_a8_proc_0
      - pi_d_a8_a3_proc_2 - pi_d_a8_a3_proc_0 + pi_d_a3_a9_proc_3
      + pi_d_a3_a9_proc_0 + pi_d_a3_a9_proc_1 - pi_d_a9_a3_proc_3
      - pi_d_a9_a3_proc_0 - pi_d_a9_a3_proc_1 >= 0
 c17: 646 pi_p_a3_a2 + 646 pi_d_a3_a0_proc_0 + 646 pi_d_a3_a1_proc_0
      + 646 pi_d_a3_a2_proc_0 + 646 pi_d_a3_a4_proc_0 + 646 pi_d_a3_a5_proc_0
      + 646 pi_d_a3_a6_proc_0 + 646 pi_d_a3_a7_proc_0 + 646 pi_d_a3_a8_proc_0
      + 646 pi_d_a3_a9_proc_0 + pi_y1_a3 + pi_y2_a3_proc_0 >= 0
 c18: 898 pi_p_a3_a2 + 898 pi_d_a3_a1_proc_1 + 898 pi_d_a3_a2_proc_1
      + 898 pi_d_a3_a4_proc_1 + 898 pi_d_a3_a5_proc_1 + 898 pi_d_a3_a7_proc_1
      + 898 pi_d_a3_a9_proc_1 + pi_y1_a3 + pi_y2_a3_proc_1 >= 0
 c19: 1076 pi_p_a3_a2 + 1076 pi_d_a3_a0_proc_2 + 1076 pi_d_a3_a2_proc_2
      + 1076 pi_d_a3_a4_proc_2 + 1076 pi_d_a3_a5_proc_2 + 1076 pi_d_a3_a6_proc_2
      + 1076 pi_d_a3_a8_proc_2 + pi_y1_a3 + pi_y2_a3_proc_2 >= 0
 c20: 917 pi_p_a3_a2 + 917 pi_d_a3_a0_proc_3 + 917 pi_d_a3_a1_proc_3
      + 917 pi_d_a3_a2_proc_3 + 917 pi_d_a3_a5_proc_3 + 917 pi_d_a3_a6_proc_3
      + 917 pi_d_a3_a9_proc_3 + pi_y1_a3 + pi_y2_a3_proc_3 >= 0
 c21: - pi_p_a1_a4 + pi_p_a4_a3 + pi_p_a4_a8 - pi_d_a0_a4_proc_2
      - pi_d_a0_a4_proc_0 + pi_d_a4_a0_proc_2 + pi_d_a4_a0_proc_0
      - pi_d_a1_a4_proc_0 - pi_d_a1_a4_proc_1 + pi_d_a4_a1_proc_0
      + pi_d_a4_a1_proc_1 - pi_d_a2_a4_proc_2 - pi_d_a2_a4_proc_0
      - pi_d_a2_a4_proc_1 + pi_d_a4_a2_proc_2 + pi_d_a4_a2_proc_0
      + pi_d_a4_a2_proc_1 - pi_d_a3_a4_proc_2 - pi_d_a3_a4_proc_0
      - pi_d_a3_a4_proc_1 + pi_d_a4_a3_proc_2 + pi_d_a4_a3_proc_0
      + pi_d_a4_a3_proc_1 + pi_d_a4_a5_proc_2 + pi_d_a4_a5_proc_0
      + pi_d_a4_a5_proc_1 - pi_d_a5_a4_proc_2 - pi_d_a5_a4_proc_0
      - pi_d_a5_a4_proc_1 + pi_d_a4_a6_proc_2 + pi_d_a4_a6_proc_0
      - pi_d_a6_a4_proc_2 - pi_d_a6_a4_proc_0 + pi_d_a4_a7_proc_0
      + pi_d_a4_a7_proc_1 - pi_d_a7_a4_proc_0 - pi_d_a7_a4_proc_1
      + pi_d_a4_a8_proc_2 + pi_d_a4_a8_proc_0 - pi_d_a8_a4_proc_2
      - pi_d_a8_a4_proc_0 + pi_d_a4_a9_proc_0 + pi_d_a4_a9_proc_1
      - pi_d_a9_a4_proc_0 - pi_d_a9_a4_proc_1 >= 0
 c22: 728 pi_p_a4_a3 + 728 pi_p_a4_a8 + 728 pi_d_a4_a0_proc_0
      + 728 pi_d_a4_a1_proc_0 + 728 pi_d_a4_a2_proc_0 + 728 pi_d_a4_a3_proc_0
      + 728 pi_d_a4_a5_proc_0 + 728 pi_d_a4_a6_proc_0 + 728 pi_d_a4_a7_proc_0
      + 728 pi_d_a4_a8_proc_0 + 728 pi_d_a4_a9_proc_0 + pi_y1_a4
      + pi_y2_a4_proc_0 >= 0
 c23: 677 pi_p_a4_a3 + 677 pi_p_a4_a8 + 677 pi_d_a4_a1_proc_1
      + 677 pi_d_a4_a2_proc_1 + 677 pi_d_a4_a3_proc_1 + 677 pi_d_a4_a5_proc_1
      + 677 pi_d_a4_a7_proc_1 + 677 pi_d_a4_a9_proc_1 + pi_y1_a4
      + pi_y2_a4_proc_1 >= 0
 c24: 280 pi_p_a4_a3 + 280 pi_p_a4_a8 + 280 pi_d_a4_a0_proc_2
      + 280 pi_d_a4_a2_proc_2 + 280 pi_d_a4_a3_proc_2 + 280 pi_d_a4_a5_proc_2
      + 280 pi_d_a4_a6_proc_2 + 280 pi_d_a4_a8_proc_2 + pi_y1_a4
      + pi_y2_a4_proc_2 >= 0
 c25: - pi_p_a2_a5 + pi_p_a5_a7 + pi_p_a5_a9 - pi_d_a0_a5_proc_2
      - pi_d_a0_a5_proc_3 - pi_d_a0_a5_proc_0 + pi_d_a5_a0_proc_2
      + pi_d_a5_a0_proc_3 + pi_d_a5_a0_proc_0 - pi_d_a1_a5_proc_3
      - pi_d_a1_a5_proc_0 - pi_d_a1_a5_proc_1 + pi_d_a5_a1_proc_3
      + pi_d_a5_a1_proc_0 + pi_d_a5_a1_proc_1 - pi_d_a2_a5_proc_2
      - pi_d_a2_a5_proc_3 - pi_d_a2_a5_proc_0 - pi_d_a2_a5_proc_1
      + pi_d_a5_a2_proc_2 + pi_d_a5_a2_proc_3 + pi_d_a5_a2_proc_0
      + pi_d_a5_a2_proc_1 - pi_d_a3_a5_proc_2 - pi_d_a3_a5_proc_3
      - pi_d_a3_a5_proc_0 - pi_d_a3_a5_proc_1 + pi_d_a5_a3_proc_2
      + pi_d_a5_a3_proc_3 + pi_d_a5_a3_proc_0 + pi_d_a5_a3_proc_1
      - pi_d_a4_a5_proc_2 - pi_d_a4_a5_proc_0 - pi_d_a4_a5_proc_1
      + pi_d_a5_a4_proc_2 + pi_d_a5_a4_proc_0 + pi_d_a5_a4_proc_1
      + pi_d_a5_a6_proc_2 + pi_d_a5_a6_proc_3 + pi_d_a5_a6_proc_0
      - pi_d_a6_a5_proc_2 - pi_d_a6_a5_proc_3 - pi_d_a6_a5_proc_0
      + pi_d_a5_a7_proc_0 + pi_d_a5_a7_proc_1 - pi_d_a7_a5_proc_0
      - pi_d_a7_a5_proc_1 + pi_d_a5_a8_proc_2 + pi_d_a5_a8_proc_0
      - pi_d_a8_a5_proc_2 - pi_d_a8_a5_proc_0 + pi_d_a5_a9_proc_3
      + pi_d_a5_a9_proc_0 + pi_d_a5_a9_proc_1 - pi_d_a9_a5_proc_3
      - pi_d_a9_a5_proc_0 - pi_d_a9_a5_proc_1 >= 0
 c26: 956 pi_p_a5_a7 + 956 pi_p_a5_a9 + 956 pi_d_a5_a0_proc_0
      + 956 pi_d_a5_a1_proc_0 + 956 pi_d_a5_a2_proc_0 + 956 pi_d_a5_a3_proc_0
      + 956 pi_d_a5_a4_proc_0 + 956 pi_d_a5_a6_proc_0 + 956 pi_d_a5_a7_proc_0
      + 956 pi_d_a5_a8_proc_0 + 956 pi_d_a5_a9_proc_0 + pi_y1_a5
      + pi_y2_a5_proc_0 >= 0
 c27: 1082 pi_p_a5_a7 + 1082 pi_p_a5_a9 + 1082 pi_d_a5_a1_proc_1
      + 1082 pi_d_a5_a2_proc_1 + 1082 pi_d_a5_a3_proc_1 + 1082 pi_d_a5_a4_proc_1
      + 1082 pi_d_a5_a7_proc_1 + 1082 pi_d_a5_a9_proc_1 + pi_y1_a5
      + pi_y2_a5_proc_1 >= 0
 c28: 761 pi_p_a5_a7 + 761 pi_p_a5_a9 + 761 pi_d_a5_a0_proc_2
      + 761 pi_d_a5_a2_proc_2 + 761 pi_d_a5_a3_proc_2 + 761 pi_d_a5_a4_proc_2
      + 761 pi_d_a5_a6_proc_2 + 761 pi_d_a5_a8_proc_2 + pi_y1_a5
      + pi_y2_a5_proc_2 >= 0
 c29: 738 pi_p_a5_a7 + 738 pi_p_a5_a9 + 738 pi_d_a5_a0_proc_3
      + 738 pi_d_a5_a1_proc_3 + 738 pi_d_a5_a2_proc_3 + 738 pi_d_a5_a3_proc_3
      + 738 pi_d_a5_a6_proc_3 + 738 pi_d_a5_a9_proc_3 + pi_y1_a5
      + pi_y2_a5_proc_3 >= 0
 c30: pi_p_a6_a3 - pi_p_a8_a6 + pi_p_a6_a9 - pi_d_a0_a6_proc_2
      - pi_d_a0_a6_proc_3 - pi_d_a0_a6_proc_0 + pi_d_a6_a0_proc_2
      + pi_d_a6_a0_proc_3 + pi_d_a6_a0_proc_0 - pi_d_a1_a6_proc_3
      - pi_d_a1_a6_proc_0 + pi_d_a6_a1_proc_3 + pi_d_a6_a1_proc_0
      - pi_d_a2_a6_proc_2 - pi_d_a2_a6_proc_3 - pi_d_a2_a6_proc_0
      + pi_d_a6_a2_proc_2 + pi_d_a6_a2_proc_3 + pi_d_a6_a2_proc_0
      - pi_d_a3_a6_proc_2 - pi_d_a3_a6_proc_3 - pi_d_a3_a6_proc_0
      + pi_d_a6_a3_proc_2 + pi_d_a6_a3_proc_3 + pi_d_a6_a3_proc_0
      - pi_d_a4_a6_proc_2 - pi_d_a4_a6_proc_0 + pi_d_a6_a4_proc_2
      + pi_d_a6_a4_proc_0 - pi_d_a5_a6_proc_2 - pi_d_a5_a6_proc_3
      - pi_d_a5_a6_proc_0 + pi_d_a6_a5_proc_2 + pi_d_a6_a5_proc_3
      + pi_d_a6_a5_proc_0 + pi_d_a6_a7_proc_0 - pi_d_a7_a6_proc_0
      + pi_d_a6_a8_proc_2 + pi_d_a6_a8_proc_0 - pi_d_a8_a6_proc_2
      - pi_d_a8_a6_proc_0 + pi_d_a6_a9_proc_3 + pi_d_a6_a9_proc_0
      - pi_d_a9_a6_proc_3 - pi_d_a9_a6_proc_0 >= 0
 c31: 838 pi_p_a6_a3 + 838 pi_p_a6_a9 + 838 pi_d_a6_a0_proc_0
      + 838 pi_d_a6_a1_proc_0 + 838 pi_d_a6_a2_proc_0 + 838 pi_d_a6_a3_proc_0
      + 838 pi_d_a6_a4_proc_0 + 838 pi_d_a6_a5_proc_0 + 838 pi_d_a6_a7_proc_0
      + 838 pi_d_a6_a8_proc_0 + 838 pi_d_a6_a9_proc_0 + pi_y1_a6
      + pi_y2_a6_proc_0 >= 0
 c32: 1262 pi_p_a6_a3 + 1262 pi_p_a6_a9 + 1262 pi_d_a6_a0_proc_2
      + 1262 pi_d_a6_a2_proc_2 + 1262 pi_d_a6_a3_proc_2 + 1262 pi_d_a6_a4_proc_2
      + 1262 pi_d_a6_a5_proc_2 + 1262 pi_d_a6_a8_proc_2 + pi_y1_a6
      + pi_y2_a6_proc_2 >= 0
 c33: 959 pi_p_a6_a3 + 959 pi_p_a6_a9 + 959 pi_d_a6_a0_proc_3
      + 959 pi_d_a6_a1_proc_3 + 959 pi_d_a6_a2_proc_3 + 959 pi_d_a6_a3_proc_3
      + 959 pi_d_a6_a5_proc_3 + 959 pi_d_a6_a9_proc_3 + pi_y1_a6
      + pi_y2_a6_proc_3 >= 0
 c34: pi_p_a7_a2 - pi_p_a9_a7 - pi_p_a2_a7 - pi_p_a5_a7 - pi_d_a0_a7_proc_0
      + pi_d_a7_a0_proc_0 - pi_d_a1_a7_proc_0 - pi_d_a1_a7_proc_1
      + pi_d_a7_a1_proc_0 + pi_d_a7_a1_proc_1 - pi_d_a2_a7_proc_0
      - pi_d_a2_a7_proc_1 + pi_d_a7_a2_proc_0 + pi_d_a7_a2_proc_1
      - pi_d_a3_a7_proc_0 - pi_d_a3_a7_proc_1 + pi_d_a7_a3_proc_0
      + pi_d_a7_a3_proc_1 - pi_d_a4_a7_proc_0 - pi_d_a4_a7_proc_1
      + pi_d_a7_a4_proc_0 + pi_d_a7_a4_proc_1 - pi_d_a5_a7_proc_0
      - pi_d_a5_a7_proc_1 + pi_d_a7_a5_proc_0 + pi_d_a7_a5_proc_1
      - pi_d_a6_a7_proc_0 + pi_d_a7_a6_proc_0 + pi_d_a7_a8_proc_0
      - pi_d_a8_a7_proc_0 + pi_d_a7_a9_proc_0 + pi_d_a7_a9_proc_1
      - pi_d_a9_a7_proc_0 - pi_d_a9_a7_proc_1 >= 0
 c35: 939 pi_p_a7_a2 + 939 pi_d_a7_a0_proc_0 + 939 pi_d_a7_a1_proc_0
      + 939 pi_d_a7_a2_proc_0 + 939 pi_d_a7_a3_proc_0 + 939 pi_d_a7_a4_proc_0
      + 939 pi_d_a7_a5_proc_0 + 939 pi_d_a7_a6_proc_0 + 939 pi_d_a7_a8_proc_0
      + 939 pi_d_a7_a9_proc_0 + pi_y1_a7 + pi_y2_a7_proc_0 >= 0
 c36: 825 pi_p_a7_a2 + 825 pi_d_a7_a1_proc_1 + 825 pi_d_a7_a2_proc_1
      + 825 pi_d_a7_a3_proc_1 + 825 pi_d_a7_a4_proc_1 + 825 pi_d_a7_a5_proc_1
      + 825 pi_d_a7_a9_proc_1 + pi_y1_a7 + pi_y2_a7_proc_1 >= 0
 c37: pi_p_a8_a6 - pi_p_a4_a8 - pi_d_a0_a8_proc_2 - pi_d_a0_a8_proc_0
      + pi_d_a8_a0_proc_2 + pi_d_a8_a0_proc_0 - pi_d_a1_a8_proc_0
      + pi_d_a8_a1_proc_0 - pi_d_a2_a8_proc_2 - pi_d_a2_a8_proc_0
      + pi_d_a8_a2_proc_2 + pi_d_a8_a2_proc_0 - pi_d_a3_a8_proc_2
      - pi_d_a3_a8_proc_0 + pi_d_a8_a3_proc_2 + pi_d_a8_a3_proc_0
      - pi_d_a4_a8_proc_2 - pi_d_a4_a8_proc_0 + pi_d_a8_a4_proc_2
      + pi_d_a8_a4_proc_0 - pi_d_a5_a8_proc_2 - pi_d_a5_a8_proc_0
      + pi_d_a8_a5_proc_2 + pi_d_a8_a5_proc_0 - pi_d_a6_a8_proc_2
      - pi_d_a6_a8_proc_0 + pi_d_a8_a6_proc_2 + pi_d_a8_a6_proc_0
      - pi_d_a7_a8_proc_0 + pi_d_a8_a7_proc_0 + pi_d_a8_a9_proc_0
      - pi_d_a9_a8_proc_0 >= 0
 c38: 403 pi_p_a8_a6 + 403 pi_d_a8_a0_proc_0 + 403 pi_d_a8_a1_proc_0
      + 403 pi_d_a8_a2_proc_0 + 403 pi_d_a8_a3_proc_0 + 403 pi_d_a8_a4_proc_0
      + 403 pi_d_a8_a5_proc_0 + 403 pi_d_a8_a6_proc_0 + 403 pi_d_a8_a7_proc_0
      + 403 pi_d_a8_a9_proc_0 + pi_y1_a8 + pi_y2_a8_proc_0 >= 0
 c39: 700 pi_p_a8_a6 + 700 pi_d_a8_a0_proc_2 + 700 pi_d_a8_a2_proc_2
      + 700 pi_d_a8_a3_proc_2 + 700 pi_d_a8_a4_proc_2 + 700 pi_d_a8_a5_proc_2
      + 700 pi_d_a8_a6_proc_2 + pi_y1_a8 + pi_y2_a8_proc_2 >= 0
 c40: pi_p_a9_a7 - pi_p_a6_a9 - pi_p_a5_a9 - pi_d_a0_a9_proc_3
      - pi_d_a0_a9_proc_0 + pi_d_a9_a0_proc_3 + pi_d_a9_a0_proc_0
      - pi_d_a1_a9_proc_3 - pi_d_a1_a9_proc_0 - pi_d_a1_a9_proc_1
      + pi_d_a9_a1_proc_3 + pi_d_a9_a1_proc_0 + pi_d_a9_a1_proc_1
      - pi_d_a2_a9_proc_3 - pi_d_a2_a9_proc_0 - pi_d_a2_a9_proc_1
      + pi_d_a9_a2_proc_3 + pi_d_a9_a2_proc_0 + pi_d_a9_a2_proc_1
      - pi_d_a3_a9_proc_3 - pi_d_a3_a9_proc_0 - pi_d_a3_a9_proc_1
      + pi_d_a9_a3_proc_3 + pi_d_a9_a3_proc_0 + pi_d_a9_a3_proc_1
      - pi_d_a4_a9_proc_0 - pi_d_a4_a9_proc_1 + pi_d_a9_a4_proc_0
      + pi_d_a9_a4_proc_1 - pi_d_a5_a9_proc_3 - pi_d_a5_a9_proc_0
      - pi_d_a5_a9_proc_1 + pi_d_a9_a5_proc_3 + pi_d_a9_a5_proc_0
      + pi_d_a9_a5_proc_1 - pi_d_a6_a9_proc_3 - pi_d_a6_a9_proc_0
      + pi_d_a9_a6_proc_3 + pi_d_a9_a6_proc_0 - pi_d_a7_a9_proc_0
      - pi_d_a7_a9_proc_1 + pi_d_a9_a7_proc_0 + pi_d_a9_a7_proc_1
      - pi_d_a8_a9_proc_0 + pi_d_a9_a8_proc_0 >= 0
 c41: 872 pi_p_a9_a7 + 872 pi_d_a9_a0_proc_0 + 872 pi_d_a9_a1_proc_0
      + 872 pi_d_a9_a2_proc_0 + 872 pi_d_a9_a3_proc_0 + 872 pi_d_a9_a4_proc_0
      + 872 pi_d_a9_a5_proc_0 + 872 pi_d_a9_a6_proc_0 + 872 pi_d_a9_a7_proc_0
      + 872 pi_d_a9_a8_proc_0 + pi_y1_a9 + pi_y2_a9_proc_0 >= 0
 c42: 1190 pi_p_a9_a7 + 1190 pi_d_a9_a1_proc_1 + 1190 pi_d_a9_a2_proc_1
      + 1190 pi_d_a9_a3_proc_1 + 1190 pi_d_a9_a4_proc_1 + 1190 pi_d_a9_a5_proc_1
      + 1190 pi_d_a9_a7_proc_1 + pi_y1_a9 + pi_y2_a9_proc_1 >= 0
 c43: 571 pi_p_a9_a7 + 571 pi_d_a9_a0_proc_3 + 571 pi_d_a9_a1_proc_3
      + 571 pi_d_a9_a2_proc_3 + 571 pi_d_a9_a3_proc_3 + 571 pi_d_a9_a5_proc_3
      + 571 pi_d_a9_a6_proc_3 + pi_y1_a9 + pi_y2_a9_proc_3 >= 0

Bounds
       pi_y1_a0 Free
       pi_y1_a1 Free
       pi_y1_a2 Free
       pi_y1_a3 Free
       pi_y1_a4 Free
       pi_y1_a5 Free
       pi_y1_a6 Free
       pi_y1_a7 Free
       pi_y1_a8 Free
       pi_y1_a9 Free
End
