benchmark/results/graph__10-1000-0.10-04_15/graph__10-1000-0.10-04_15_Quinton_Benders_aux.txt
solution for: Quinton Benders_auxiliary_sub
objective: 0.000226244
status: OPTIMAL_SOLUTION(2)
pi_p_a0_a1=0.000
pi_p_a2_a0=0.000
pi_p_a1_a4=0.000
pi_p_a7_a2=0.000
pi_p_a8_a6=0.000
pi_p_a9_a7=0.000
pi_p_a6_a9=0.000
pi_p_a4_a8=0.000
pi_y1_a0=-0.119
pi_y1_a1=-0.175
pi_y1_a2=-0.046
pi_y1_a4=-0.063
pi_y1_a6=-0.190
pi_y1_a7=-0.187
pi_y1_a8=-0.091
pi_y1_a9=-0.129
